26
7
0
20
0
16
49
14
0
4
0
11
11
0
0
14
6
24
0
5
25
0
6
4
6
0
11
8
6
10
32
9
0
42
0
0
18
21
0
0
0
5
30
23
0
7
14
5
9
15
4
0
25
0
33
9
15
51
0
0
5
5
14
32
0
10
9
22
38
32
0
0
0
16
20
29
41
0
0
6
0
59
20
15
0
42
5
10
56
0
5
14
48
15
0
6
0
29
0
19
